
(set-logic HORN)
(declare-datatypes ((Bool_135 0)) (((false_135) (true_135))))
(declare-fun diseqBool_57 (Bool_135 Bool_135) Bool)
(declare-fun isfalse_57 (Bool_135) Bool)
(declare-fun istrue_57 (Bool_135) Bool)
(assert (isfalse_57 false_135))
(assert (istrue_57 true_135))
(assert (diseqBool_57 false_135 true_135))
(assert (diseqBool_57 true_135 false_135))
(declare-fun and_135 (Bool_135 Bool_135 Bool_135) Bool)
(declare-fun or_136 (Bool_135 Bool_135 Bool_135) Bool)
(declare-fun hence_135 (Bool_135 Bool_135 Bool_135) Bool)
(declare-fun not_135 (Bool_135 Bool_135) Bool)
(assert (and_135 false_135 false_135 false_135))
(assert (and_135 false_135 true_135 false_135))
(assert (and_135 false_135 false_135 true_135))
(assert (and_135 true_135 true_135 true_135))
(assert (or_136 false_135 false_135 false_135))
(assert (or_136 true_135 true_135 false_135))
(assert (or_136 true_135 false_135 true_135))
(assert (or_136 true_135 true_135 true_135))
(assert (hence_135 true_135 false_135 false_135))
(assert (hence_135 false_135 true_135 false_135))
(assert (hence_135 true_135 false_135 true_135))
(assert (hence_135 true_135 true_135 true_135))
(assert (not_135 true_135 false_135))
(assert (not_135 false_135 true_135))
(declare-datatypes ((A_24 0)) (((X_18794) (Y_740))))
(declare-fun diseqA_5 (A_24 A_24) Bool)
(declare-fun isX_5 (A_24) Bool)
(declare-fun isY_5 (A_24) Bool)
(assert (isX_5 X_18794))
(assert (isY_5 Y_740))
(assert (diseqA_5 X_18794 Y_740))
(assert (diseqA_5 Y_740 X_18794))
(declare-datatypes ((R_156 0)) (((Nil_108) (Eps_10) (Atom_5 (projAtom_10 A_24)) (Plus_31 (projPlus_20 R_156) (projPlus_21 R_156)) (Seq_10 (projSeq_20 R_156) (projSeq_21 R_156)) (Star_5 (projStar_10 R_156)))))
(declare-fun diseqR_5 (R_156 R_156) Bool)
(declare-fun projAtom_11 (A_24 R_156) Bool)
(declare-fun projPlus_22 (R_156 R_156) Bool)
(declare-fun projPlus_23 (R_156 R_156) Bool)
(declare-fun projSeq_22 (R_156 R_156) Bool)
(declare-fun projSeq_23 (R_156 R_156) Bool)
(declare-fun projStar_11 (R_156 R_156) Bool)
(declare-fun isNil_108 (R_156) Bool)
(declare-fun isEps_5 (R_156) Bool)
(declare-fun isAtom_5 (R_156) Bool)
(declare-fun isPlus_5 (R_156) Bool)
(declare-fun isSeq_5 (R_156) Bool)
(declare-fun isStar_5 (R_156) Bool)
(assert (forall ((x_20883 A_24))
	(projAtom_11 x_20883 (Atom_5 x_20883))))
(assert (forall ((x_20885 R_156) (x_20886 R_156))
	(projPlus_22 x_20885 (Plus_31 x_20885 x_20886))))
(assert (forall ((x_20885 R_156) (x_20886 R_156))
	(projPlus_23 x_20886 (Plus_31 x_20885 x_20886))))
(assert (forall ((x_20888 R_156) (x_20889 R_156))
	(projSeq_22 x_20888 (Seq_10 x_20888 x_20889))))
(assert (forall ((x_20888 R_156) (x_20889 R_156))
	(projSeq_23 x_20889 (Seq_10 x_20888 x_20889))))
(assert (forall ((x_20891 R_156))
	(projStar_11 x_20891 (Star_5 x_20891))))
(assert (isNil_108 Nil_108))
(assert (isEps_5 Eps_10))
(assert (forall ((x_20893 A_24))
	(isAtom_5 (Atom_5 x_20893))))
(assert (forall ((x_20894 R_156) (x_20895 R_156))
	(isPlus_5 (Plus_31 x_20894 x_20895))))
(assert (forall ((x_20896 R_156) (x_20897 R_156))
	(isSeq_5 (Seq_10 x_20896 x_20897))))
(assert (forall ((x_20898 R_156))
	(isStar_5 (Star_5 x_20898))))
(assert (diseqR_5 Nil_108 Eps_10))
(assert (forall ((x_20899 A_24))
	(diseqR_5 Nil_108 (Atom_5 x_20899))))
(assert (forall ((x_20900 R_156) (x_20901 R_156))
	(diseqR_5 Nil_108 (Plus_31 x_20900 x_20901))))
(assert (forall ((x_20902 R_156) (x_20903 R_156))
	(diseqR_5 Nil_108 (Seq_10 x_20902 x_20903))))
(assert (forall ((x_20904 R_156))
	(diseqR_5 Nil_108 (Star_5 x_20904))))
(assert (diseqR_5 Eps_10 Nil_108))
(assert (forall ((x_20905 A_24))
	(diseqR_5 (Atom_5 x_20905) Nil_108)))
(assert (forall ((x_20906 R_156) (x_20907 R_156))
	(diseqR_5 (Plus_31 x_20906 x_20907) Nil_108)))
(assert (forall ((x_20908 R_156) (x_20909 R_156))
	(diseqR_5 (Seq_10 x_20908 x_20909) Nil_108)))
(assert (forall ((x_20910 R_156))
	(diseqR_5 (Star_5 x_20910) Nil_108)))
(assert (forall ((x_20911 A_24))
	(diseqR_5 Eps_10 (Atom_5 x_20911))))
(assert (forall ((x_20912 R_156) (x_20913 R_156))
	(diseqR_5 Eps_10 (Plus_31 x_20912 x_20913))))
(assert (forall ((x_20914 R_156) (x_20915 R_156))
	(diseqR_5 Eps_10 (Seq_10 x_20914 x_20915))))
(assert (forall ((x_20916 R_156))
	(diseqR_5 Eps_10 (Star_5 x_20916))))
(assert (forall ((x_20917 A_24))
	(diseqR_5 (Atom_5 x_20917) Eps_10)))
(assert (forall ((x_20918 R_156) (x_20919 R_156))
	(diseqR_5 (Plus_31 x_20918 x_20919) Eps_10)))
(assert (forall ((x_20920 R_156) (x_20921 R_156))
	(diseqR_5 (Seq_10 x_20920 x_20921) Eps_10)))
(assert (forall ((x_20922 R_156))
	(diseqR_5 (Star_5 x_20922) Eps_10)))
(assert (forall ((x_20923 A_24) (x_20924 R_156) (x_20925 R_156))
	(diseqR_5 (Atom_5 x_20923) (Plus_31 x_20924 x_20925))))
(assert (forall ((x_20926 A_24) (x_20927 R_156) (x_20928 R_156))
	(diseqR_5 (Atom_5 x_20926) (Seq_10 x_20927 x_20928))))
(assert (forall ((x_20929 A_24) (x_20930 R_156))
	(diseqR_5 (Atom_5 x_20929) (Star_5 x_20930))))
(assert (forall ((x_20931 R_156) (x_20932 R_156) (x_20933 A_24))
	(diseqR_5 (Plus_31 x_20931 x_20932) (Atom_5 x_20933))))
(assert (forall ((x_20934 R_156) (x_20935 R_156) (x_20936 A_24))
	(diseqR_5 (Seq_10 x_20934 x_20935) (Atom_5 x_20936))))
(assert (forall ((x_20937 R_156) (x_20938 A_24))
	(diseqR_5 (Star_5 x_20937) (Atom_5 x_20938))))
(assert (forall ((x_20939 R_156) (x_20940 R_156) (x_20941 R_156) (x_20942 R_156))
	(diseqR_5 (Plus_31 x_20939 x_20940) (Seq_10 x_20941 x_20942))))
(assert (forall ((x_20943 R_156) (x_20944 R_156) (x_20945 R_156))
	(diseqR_5 (Plus_31 x_20943 x_20944) (Star_5 x_20945))))
(assert (forall ((x_20946 R_156) (x_20947 R_156) (x_20948 R_156) (x_20949 R_156))
	(diseqR_5 (Seq_10 x_20946 x_20947) (Plus_31 x_20948 x_20949))))
(assert (forall ((x_20950 R_156) (x_20951 R_156) (x_20952 R_156))
	(diseqR_5 (Star_5 x_20950) (Plus_31 x_20951 x_20952))))
(assert (forall ((x_20953 R_156) (x_20954 R_156) (x_20955 R_156))
	(diseqR_5 (Seq_10 x_20953 x_20954) (Star_5 x_20955))))
(assert (forall ((x_20956 R_156) (x_20957 R_156) (x_20958 R_156))
	(diseqR_5 (Star_5 x_20956) (Seq_10 x_20957 x_20958))))
(assert (forall ((x_20959 A_24) (x_20960 A_24))
	(=> (diseqA_5 x_20959 x_20960) (diseqR_5 (Atom_5 x_20959) (Atom_5 x_20960)))))
(assert (forall ((x_20961 R_156) (x_20962 R_156) (x_20963 R_156) (x_20964 R_156))
	(=> (diseqR_5 x_20961 x_20963) (diseqR_5 (Plus_31 x_20961 x_20962) (Plus_31 x_20963 x_20964)))))
(assert (forall ((x_20961 R_156) (x_20962 R_156) (x_20963 R_156) (x_20964 R_156))
	(=> (diseqR_5 x_20962 x_20964) (diseqR_5 (Plus_31 x_20961 x_20962) (Plus_31 x_20963 x_20964)))))
(assert (forall ((x_20965 R_156) (x_20966 R_156) (x_20967 R_156) (x_20968 R_156))
	(=> (diseqR_5 x_20965 x_20967) (diseqR_5 (Seq_10 x_20965 x_20966) (Seq_10 x_20967 x_20968)))))
(assert (forall ((x_20965 R_156) (x_20966 R_156) (x_20967 R_156) (x_20968 R_156))
	(=> (diseqR_5 x_20966 x_20968) (diseqR_5 (Seq_10 x_20965 x_20966) (Seq_10 x_20967 x_20968)))))
(assert (forall ((x_20969 R_156) (x_20970 R_156))
	(=> (diseqR_5 x_20969 x_20970) (diseqR_5 (Star_5 x_20969) (Star_5 x_20970)))))
(declare-datatypes ((list_99 0)) (((nil_109) (cons_99 (head_198 A_24) (tail_198 list_99)))))
(declare-fun diseqlist_99 (list_99 list_99) Bool)
(declare-fun head_199 (A_24 list_99) Bool)
(declare-fun tail_199 (list_99 list_99) Bool)
(declare-fun isnil_109 (list_99) Bool)
(declare-fun iscons_99 (list_99) Bool)
(assert (forall ((x_20972 A_24) (x_20973 list_99))
	(head_199 x_20972 (cons_99 x_20972 x_20973))))
(assert (forall ((x_20972 A_24) (x_20973 list_99))
	(tail_199 x_20973 (cons_99 x_20972 x_20973))))
(assert (isnil_109 nil_109))
(assert (forall ((x_20975 A_24) (x_20976 list_99))
	(iscons_99 (cons_99 x_20975 x_20976))))
(assert (forall ((x_20977 A_24) (x_20978 list_99))
	(diseqlist_99 nil_109 (cons_99 x_20977 x_20978))))
(assert (forall ((x_20979 A_24) (x_20980 list_99))
	(diseqlist_99 (cons_99 x_20979 x_20980) nil_109)))
(assert (forall ((x_20981 A_24) (x_20982 list_99) (x_20983 A_24) (x_20984 list_99))
	(=> (diseqA_5 x_20981 x_20983) (diseqlist_99 (cons_99 x_20981 x_20982) (cons_99 x_20983 x_20984)))))
(assert (forall ((x_20981 A_24) (x_20982 list_99) (x_20983 A_24) (x_20984 list_99))
	(=> (diseqlist_99 x_20982 x_20984) (diseqlist_99 (cons_99 x_20981 x_20982) (cons_99 x_20983 x_20984)))))
(declare-fun seq_11 (R_156 R_156 R_156) Bool)
(assert (forall ((y_741 R_156))
	(seq_11 Nil_108 Nil_108 y_741)))
(assert (forall ((x_18796 R_156) (x_19038 A_24))
	(seq_11 Nil_108 (Atom_5 x_19038) Nil_108)))
(assert (forall ((x_18796 R_156))
	(seq_11 Nil_108 Eps_10 Nil_108)))
(assert (forall ((x_18796 R_156) (x_19039 R_156) (x_19040 R_156))
	(seq_11 Nil_108 (Plus_31 x_19039 x_19040) Nil_108)))
(assert (forall ((x_18796 R_156) (x_19041 R_156) (x_19042 R_156))
	(seq_11 Nil_108 (Seq_10 x_19041 x_19042) Nil_108)))
(assert (forall ((x_18796 R_156) (x_19043 R_156))
	(seq_11 Nil_108 (Star_5 x_19043) Nil_108)))
(assert (forall ((x_18797 R_156) (x_18852 A_24) (x_18796 R_156))
	(seq_11 (Atom_5 x_18852) Eps_10 (Atom_5 x_18852))))
(assert (forall ((x_18797 R_156) (x_18796 R_156))
	(seq_11 Eps_10 Eps_10 Eps_10)))
(assert (forall ((x_18797 R_156) (x_18853 R_156) (x_18854 R_156) (x_18796 R_156))
	(seq_11 (Plus_31 x_18853 x_18854) Eps_10 (Plus_31 x_18853 x_18854))))
(assert (forall ((x_18797 R_156) (x_18855 R_156) (x_18856 R_156) (x_18796 R_156))
	(seq_11 (Seq_10 x_18855 x_18856) Eps_10 (Seq_10 x_18855 x_18856))))
(assert (forall ((x_18797 R_156) (x_18857 R_156) (x_18796 R_156))
	(seq_11 (Star_5 x_18857) Eps_10 (Star_5 x_18857))))
(assert (forall ((x_18798 R_156) (x_18816 A_24) (x_18797 R_156) (x_18796 R_156))
	(seq_11 (Atom_5 x_18816) (Atom_5 x_18816) Eps_10)))
(assert (forall ((x_18798 R_156) (x_18817 R_156) (x_18818 R_156) (x_18797 R_156) (x_18796 R_156))
	(seq_11 (Plus_31 x_18817 x_18818) (Plus_31 x_18817 x_18818) Eps_10)))
(assert (forall ((x_18798 R_156) (x_18819 R_156) (x_18820 R_156) (x_18797 R_156) (x_18796 R_156))
	(seq_11 (Seq_10 x_18819 x_18820) (Seq_10 x_18819 x_18820) Eps_10)))
(assert (forall ((x_18798 R_156) (x_18821 R_156) (x_18797 R_156) (x_18796 R_156))
	(seq_11 (Star_5 x_18821) (Star_5 x_18821) Eps_10)))
(assert (forall ((x_18799 R_156) (x_18810 A_24) (x_18798 R_156) (x_18822 A_24) (x_18797 R_156) (x_18796 R_156))
	(seq_11 (Seq_10 (Atom_5 x_18822) (Atom_5 x_18810)) (Atom_5 x_18822) (Atom_5 x_18810))))
(assert (forall ((x_18799 R_156) (x_18810 A_24) (x_18798 R_156) (x_18823 R_156) (x_18824 R_156) (x_18797 R_156) (x_18796 R_156))
	(seq_11 (Seq_10 (Plus_31 x_18823 x_18824) (Atom_5 x_18810)) (Plus_31 x_18823 x_18824) (Atom_5 x_18810))))
(assert (forall ((x_18799 R_156) (x_18810 A_24) (x_18798 R_156) (x_18825 R_156) (x_18826 R_156) (x_18797 R_156) (x_18796 R_156))
	(seq_11 (Seq_10 (Seq_10 x_18825 x_18826) (Atom_5 x_18810)) (Seq_10 x_18825 x_18826) (Atom_5 x_18810))))
(assert (forall ((x_18799 R_156) (x_18810 A_24) (x_18798 R_156) (x_18827 R_156) (x_18797 R_156) (x_18796 R_156))
	(seq_11 (Seq_10 (Star_5 x_18827) (Atom_5 x_18810)) (Star_5 x_18827) (Atom_5 x_18810))))
(assert (forall ((x_18799 R_156) (x_18811 R_156) (x_18812 R_156) (x_18798 R_156) (x_18834 A_24) (x_18797 R_156) (x_18796 R_156))
	(seq_11 (Seq_10 (Atom_5 x_18834) (Plus_31 x_18811 x_18812)) (Atom_5 x_18834) (Plus_31 x_18811 x_18812))))
(assert (forall ((x_18799 R_156) (x_18811 R_156) (x_18812 R_156) (x_18798 R_156) (x_18835 R_156) (x_18836 R_156) (x_18797 R_156) (x_18796 R_156))
	(seq_11 (Seq_10 (Plus_31 x_18835 x_18836) (Plus_31 x_18811 x_18812)) (Plus_31 x_18835 x_18836) (Plus_31 x_18811 x_18812))))
(assert (forall ((x_18799 R_156) (x_18811 R_156) (x_18812 R_156) (x_18798 R_156) (x_18837 R_156) (x_18838 R_156) (x_18797 R_156) (x_18796 R_156))
	(seq_11 (Seq_10 (Seq_10 x_18837 x_18838) (Plus_31 x_18811 x_18812)) (Seq_10 x_18837 x_18838) (Plus_31 x_18811 x_18812))))
(assert (forall ((x_18799 R_156) (x_18811 R_156) (x_18812 R_156) (x_18798 R_156) (x_18839 R_156) (x_18797 R_156) (x_18796 R_156))
	(seq_11 (Seq_10 (Star_5 x_18839) (Plus_31 x_18811 x_18812)) (Star_5 x_18839) (Plus_31 x_18811 x_18812))))
(assert (forall ((x_18799 R_156) (x_18813 R_156) (x_18814 R_156) (x_18798 R_156) (x_18840 A_24) (x_18797 R_156) (x_18796 R_156))
	(seq_11 (Seq_10 (Atom_5 x_18840) (Seq_10 x_18813 x_18814)) (Atom_5 x_18840) (Seq_10 x_18813 x_18814))))
(assert (forall ((x_18799 R_156) (x_18813 R_156) (x_18814 R_156) (x_18798 R_156) (x_18841 R_156) (x_18842 R_156) (x_18797 R_156) (x_18796 R_156))
	(seq_11 (Seq_10 (Plus_31 x_18841 x_18842) (Seq_10 x_18813 x_18814)) (Plus_31 x_18841 x_18842) (Seq_10 x_18813 x_18814))))
(assert (forall ((x_18799 R_156) (x_18813 R_156) (x_18814 R_156) (x_18798 R_156) (x_18843 R_156) (x_18844 R_156) (x_18797 R_156) (x_18796 R_156))
	(seq_11 (Seq_10 (Seq_10 x_18843 x_18844) (Seq_10 x_18813 x_18814)) (Seq_10 x_18843 x_18844) (Seq_10 x_18813 x_18814))))
(assert (forall ((x_18799 R_156) (x_18813 R_156) (x_18814 R_156) (x_18798 R_156) (x_18845 R_156) (x_18797 R_156) (x_18796 R_156))
	(seq_11 (Seq_10 (Star_5 x_18845) (Seq_10 x_18813 x_18814)) (Star_5 x_18845) (Seq_10 x_18813 x_18814))))
(assert (forall ((x_18799 R_156) (x_18815 R_156) (x_18798 R_156) (x_18846 A_24) (x_18797 R_156) (x_18796 R_156))
	(seq_11 (Seq_10 (Atom_5 x_18846) (Star_5 x_18815)) (Atom_5 x_18846) (Star_5 x_18815))))
(assert (forall ((x_18799 R_156) (x_18815 R_156) (x_18798 R_156) (x_18847 R_156) (x_18848 R_156) (x_18797 R_156) (x_18796 R_156))
	(seq_11 (Seq_10 (Plus_31 x_18847 x_18848) (Star_5 x_18815)) (Plus_31 x_18847 x_18848) (Star_5 x_18815))))
(assert (forall ((x_18799 R_156) (x_18815 R_156) (x_18798 R_156) (x_18849 R_156) (x_18850 R_156) (x_18797 R_156) (x_18796 R_156))
	(seq_11 (Seq_10 (Seq_10 x_18849 x_18850) (Star_5 x_18815)) (Seq_10 x_18849 x_18850) (Star_5 x_18815))))
(assert (forall ((x_18799 R_156) (x_18815 R_156) (x_18798 R_156) (x_18851 R_156) (x_18797 R_156) (x_18796 R_156))
	(seq_11 (Seq_10 (Star_5 x_18851) (Star_5 x_18815)) (Star_5 x_18851) (Star_5 x_18815))))
(declare-fun plus_32 (R_156 R_156 R_156) Bool)
(assert (forall ((x_20798 R_156))
	(plus_32 x_20798 Nil_108 x_20798)))
(assert (forall ((x_18801 R_156) (x_19980 A_24))
	(plus_32 (Atom_5 x_19980) (Atom_5 x_19980) Nil_108)))
(assert (forall ((x_18801 R_156))
	(plus_32 Eps_10 Eps_10 Nil_108)))
(assert (forall ((x_18801 R_156) (x_19981 R_156) (x_19982 R_156))
	(plus_32 (Plus_31 x_19981 x_19982) (Plus_31 x_19981 x_19982) Nil_108)))
(assert (forall ((x_18801 R_156) (x_19983 R_156) (x_19984 R_156))
	(plus_32 (Seq_10 x_19983 x_19984) (Seq_10 x_19983 x_19984) Nil_108)))
(assert (forall ((x_18801 R_156) (x_19985 R_156))
	(plus_32 (Star_5 x_19985) (Star_5 x_19985) Nil_108)))
(assert (forall ((x_18802 R_156) (x_19974 A_24) (x_18801 R_156) (x_19986 A_24))
	(plus_32 (Plus_31 (Atom_5 x_19986) (Atom_5 x_19974)) (Atom_5 x_19986) (Atom_5 x_19974))))
(assert (forall ((x_18802 R_156) (x_19974 A_24) (x_18801 R_156))
	(plus_32 (Plus_31 Eps_10 (Atom_5 x_19974)) Eps_10 (Atom_5 x_19974))))
(assert (forall ((x_18802 R_156) (x_19974 A_24) (x_18801 R_156) (x_19987 R_156) (x_19988 R_156))
	(plus_32 (Plus_31 (Plus_31 x_19987 x_19988) (Atom_5 x_19974)) (Plus_31 x_19987 x_19988) (Atom_5 x_19974))))
(assert (forall ((x_18802 R_156) (x_19974 A_24) (x_18801 R_156) (x_19989 R_156) (x_19990 R_156))
	(plus_32 (Plus_31 (Seq_10 x_19989 x_19990) (Atom_5 x_19974)) (Seq_10 x_19989 x_19990) (Atom_5 x_19974))))
(assert (forall ((x_18802 R_156) (x_19974 A_24) (x_18801 R_156) (x_19991 R_156))
	(plus_32 (Plus_31 (Star_5 x_19991) (Atom_5 x_19974)) (Star_5 x_19991) (Atom_5 x_19974))))
(assert (forall ((x_18802 R_156) (x_18801 R_156) (x_19992 A_24))
	(plus_32 (Plus_31 (Atom_5 x_19992) Eps_10) (Atom_5 x_19992) Eps_10)))
(assert (forall ((x_18802 R_156) (x_18801 R_156))
	(plus_32 (Plus_31 Eps_10 Eps_10) Eps_10 Eps_10)))
(assert (forall ((x_18802 R_156) (x_18801 R_156) (x_19993 R_156) (x_19994 R_156))
	(plus_32 (Plus_31 (Plus_31 x_19993 x_19994) Eps_10) (Plus_31 x_19993 x_19994) Eps_10)))
(assert (forall ((x_18802 R_156) (x_18801 R_156) (x_19995 R_156) (x_19996 R_156))
	(plus_32 (Plus_31 (Seq_10 x_19995 x_19996) Eps_10) (Seq_10 x_19995 x_19996) Eps_10)))
(assert (forall ((x_18802 R_156) (x_18801 R_156) (x_19997 R_156))
	(plus_32 (Plus_31 (Star_5 x_19997) Eps_10) (Star_5 x_19997) Eps_10)))
(assert (forall ((x_18802 R_156) (x_19975 R_156) (x_19976 R_156) (x_18801 R_156) (x_19998 A_24))
	(plus_32 (Plus_31 (Atom_5 x_19998) (Plus_31 x_19975 x_19976)) (Atom_5 x_19998) (Plus_31 x_19975 x_19976))))
(assert (forall ((x_18802 R_156) (x_19975 R_156) (x_19976 R_156) (x_18801 R_156))
	(plus_32 (Plus_31 Eps_10 (Plus_31 x_19975 x_19976)) Eps_10 (Plus_31 x_19975 x_19976))))
(assert (forall ((x_18802 R_156) (x_19975 R_156) (x_19976 R_156) (x_18801 R_156) (x_19999 R_156) (x_20000 R_156))
	(plus_32 (Plus_31 (Plus_31 x_19999 x_20000) (Plus_31 x_19975 x_19976)) (Plus_31 x_19999 x_20000) (Plus_31 x_19975 x_19976))))
(assert (forall ((x_18802 R_156) (x_19975 R_156) (x_19976 R_156) (x_18801 R_156) (x_20001 R_156) (x_20002 R_156))
	(plus_32 (Plus_31 (Seq_10 x_20001 x_20002) (Plus_31 x_19975 x_19976)) (Seq_10 x_20001 x_20002) (Plus_31 x_19975 x_19976))))
(assert (forall ((x_18802 R_156) (x_19975 R_156) (x_19976 R_156) (x_18801 R_156) (x_20003 R_156))
	(plus_32 (Plus_31 (Star_5 x_20003) (Plus_31 x_19975 x_19976)) (Star_5 x_20003) (Plus_31 x_19975 x_19976))))
(assert (forall ((x_18802 R_156) (x_19977 R_156) (x_19978 R_156) (x_18801 R_156) (x_20004 A_24))
	(plus_32 (Plus_31 (Atom_5 x_20004) (Seq_10 x_19977 x_19978)) (Atom_5 x_20004) (Seq_10 x_19977 x_19978))))
(assert (forall ((x_18802 R_156) (x_19977 R_156) (x_19978 R_156) (x_18801 R_156))
	(plus_32 (Plus_31 Eps_10 (Seq_10 x_19977 x_19978)) Eps_10 (Seq_10 x_19977 x_19978))))
(assert (forall ((x_18802 R_156) (x_19977 R_156) (x_19978 R_156) (x_18801 R_156) (x_20005 R_156) (x_20006 R_156))
	(plus_32 (Plus_31 (Plus_31 x_20005 x_20006) (Seq_10 x_19977 x_19978)) (Plus_31 x_20005 x_20006) (Seq_10 x_19977 x_19978))))
(assert (forall ((x_18802 R_156) (x_19977 R_156) (x_19978 R_156) (x_18801 R_156) (x_20007 R_156) (x_20008 R_156))
	(plus_32 (Plus_31 (Seq_10 x_20007 x_20008) (Seq_10 x_19977 x_19978)) (Seq_10 x_20007 x_20008) (Seq_10 x_19977 x_19978))))
(assert (forall ((x_18802 R_156) (x_19977 R_156) (x_19978 R_156) (x_18801 R_156) (x_20009 R_156))
	(plus_32 (Plus_31 (Star_5 x_20009) (Seq_10 x_19977 x_19978)) (Star_5 x_20009) (Seq_10 x_19977 x_19978))))
(assert (forall ((x_18802 R_156) (x_19979 R_156) (x_18801 R_156) (x_20010 A_24))
	(plus_32 (Plus_31 (Atom_5 x_20010) (Star_5 x_19979)) (Atom_5 x_20010) (Star_5 x_19979))))
(assert (forall ((x_18802 R_156) (x_19979 R_156) (x_18801 R_156))
	(plus_32 (Plus_31 Eps_10 (Star_5 x_19979)) Eps_10 (Star_5 x_19979))))
(assert (forall ((x_18802 R_156) (x_19979 R_156) (x_18801 R_156) (x_20011 R_156) (x_20012 R_156))
	(plus_32 (Plus_31 (Plus_31 x_20011 x_20012) (Star_5 x_19979)) (Plus_31 x_20011 x_20012) (Star_5 x_19979))))
(assert (forall ((x_18802 R_156) (x_19979 R_156) (x_18801 R_156) (x_20013 R_156) (x_20014 R_156))
	(plus_32 (Plus_31 (Seq_10 x_20013 x_20014) (Star_5 x_19979)) (Seq_10 x_20013 x_20014) (Star_5 x_19979))))
(assert (forall ((x_18802 R_156) (x_19979 R_156) (x_18801 R_156) (x_20015 R_156))
	(plus_32 (Plus_31 (Star_5 x_20015) (Star_5 x_19979)) (Star_5 x_20015) (Star_5 x_19979))))
(declare-fun eqA_5 (Bool_135 A_24 A_24) Bool)
(assert (eqA_5 true_135 Y_740 Y_740))
(assert (eqA_5 false_135 Y_740 X_18794))
(assert (eqA_5 false_135 X_18794 Y_740))
(assert (eqA_5 true_135 X_18794 X_18794))
(declare-fun eps_11 (Bool_135 R_156) Bool)
(assert (forall ((y_744 R_156))
	(eps_11 true_135 (Star_5 y_744))))
(assert (forall ((x_20834 Bool_135) (x_20835 Bool_135) (x_20836 Bool_135) (r_157 R_156) (q_32 R_156))
	(=> (and (eps_11 x_20835 r_157) (eps_11 x_20836 q_32) (and_135 x_20834 x_20835 x_20836)) (eps_11 x_20834 (Seq_10 r_157 q_32)))))
(assert (forall ((x_20837 Bool_135) (x_20838 Bool_135) (x_20839 Bool_135) (p_93 R_156) (q_33 R_156))
	(=> (and (eps_11 x_20838 p_93) (eps_11 x_20839 q_33) (or_136 x_20837 x_20838 x_20839)) (eps_11 x_20837 (Plus_31 p_93 q_33)))))
(assert (eps_11 true_135 Eps_10))
(assert (forall ((x_18805 R_156) (x_20016 A_24))
	(eps_11 false_135 (Atom_5 x_20016))))
(assert (forall ((x_18805 R_156))
	(eps_11 false_135 Nil_108)))
(declare-fun epsR_5 (R_156 R_156) Bool)
(assert (forall ((x_18806 R_156))
	(=> (eps_11 true_135 x_18806) (epsR_5 Eps_10 x_18806))))
(assert (forall ((x_18806 R_156))
	(=> (eps_11 false_135 x_18806) (epsR_5 Nil_108 x_18806))))
(declare-fun step_5 (R_156 R_156 A_24) Bool)
(assert (forall ((x_20847 R_156) (x_20848 R_156) (p_94 R_156) (y_745 A_24))
	(=> (and (step_5 x_20848 p_94 y_745) (seq_11 x_20847 x_20848 (Star_5 p_94))) (step_5 x_20847 (Star_5 p_94) y_745))))
(assert (forall ((x_20850 R_156) (x_20851 R_156) (x_20852 R_156) (x_20853 R_156) (x_20854 R_156) (x_20855 R_156) (r_158 R_156) (q_34 R_156) (y_745 A_24))
	(=> (and (step_5 x_20851 r_158 y_745) (seq_11 x_20852 x_20851 q_34) (epsR_5 x_20853 r_158) (step_5 x_20854 q_34 y_745) (seq_11 x_20855 x_20853 x_20854) (plus_32 x_20850 x_20852 x_20855)) (step_5 x_20850 (Seq_10 r_158 q_34) y_745))))
(assert (forall ((x_20857 R_156) (x_20858 R_156) (x_20859 R_156) (p_95 R_156) (q_35 R_156) (y_745 A_24))
	(=> (and (step_5 x_20858 p_95 y_745) (step_5 x_20859 q_35 y_745) (plus_32 x_20857 x_20858 x_20859)) (step_5 x_20857 (Plus_31 p_95 q_35) y_745))))
(assert (forall ((a_25 A_24) (y_745 A_24))
	(=> (eqA_5 true_135 a_25 y_745) (step_5 Eps_10 (Atom_5 a_25) y_745))))
(assert (forall ((a_25 A_24) (y_745 A_24))
	(=> (eqA_5 false_135 a_25 y_745) (step_5 Nil_108 (Atom_5 a_25) y_745))))
(assert (forall ((x_18808 R_156) (y_745 A_24))
	(step_5 Nil_108 Eps_10 y_745)))
(assert (forall ((x_18808 R_156) (y_745 A_24))
	(step_5 Nil_108 Nil_108 y_745)))
(declare-fun recognise_5 (Bool_135 R_156 list_99) Bool)
(assert (forall ((x_20867 Bool_135) (x_20868 R_156) (z_754 A_24) (xs_233 list_99) (x_18809 R_156))
	(=> (and (step_5 x_20868 x_18809 z_754) (recognise_5 x_20867 x_20868 xs_233)) (recognise_5 x_20867 x_18809 (cons_99 z_754 xs_233)))))
(assert (forall ((x_20870 Bool_135) (x_18809 R_156))
	(=> (eps_11 x_20870 x_18809) (recognise_5 x_20870 x_18809 nil_109))))
(assert (forall ((x_20872 Bool_135) (x_20873 Bool_135) (p_96 R_156) (q_36 R_156) (r_159 R_156) (s_218 list_99))
	(=> (and true (diseqBool_57 x_20872 x_20873) (recognise_5 x_20872 (Seq_10 p_96 (Seq_10 q_36 r_159)) s_218) (recognise_5 x_20873 (Seq_10 (Seq_10 p_96 q_36) r_159) s_218)) false)))
(check-sat)
